************************************************************************
file with basedata            : cm237_.bas
initial value random generator: 758728290
************************************************************************
projects                      :  1
jobs (incl. supersource/sink ):  18
horizon                       :  108
RESOURCES
  - renewable                 :  2   R
  - nonrenewable              :  2   N
  - doubly constrained        :  0   D
************************************************************************
PROJECT INFORMATION:
pronr.  #jobs rel.date duedate tardcost  MPM-Time
    1     16      0       28        0       28
************************************************************************
PRECEDENCE RELATIONS:
jobnr.    #modes  #successors   successors
   1        1          3           2   3   4
   2        2          3           5   9  14
   3        2          3           6   7  10
   4        2          3           5   9  14
   5        2          1          16
   6        2          2           8  16
   7        2          3           9  13  17
   8        2          2          11  14
   9        2          2          12  16
  10        2          1          11
  11        2          3          12  13  17
  12        2          1          15
  13        2          1          15
  14        2          2          15  17
  15        2          1          18
  16        2          1          18
  17        2          1          18
  18        1          0        
************************************************************************
REQUESTS/DURATIONS:
jobnr. mode duration  R 1  R 2  N 1  N 2
------------------------------------------------------------------------
  1      1     0       0    0    0    0
  2      1     5       5    3    3    8
         2     8       3    3    2    5
  3      1     5       9    9    5    5
         2     8       7    8    4    5
  4      1     4       5    8    7    1
         2    10       1    3    2    1
  5      1     6       4    7    3    9
         2     7       1    7    3    6
  6      1     5       5    5    2    9
         2     6       4    5    2    7
  7      1     1       3    2    8    8
         2     6       2    2    8    4
  8      1     4       6    6    6    3
         2     4       7    4    5    5
  9      1     7       3    8    5    8
         2     7       4    7    5    8
 10      1     1      10    7    7    8
         2     3       9    5    7    6
 11      1     2       7    9    7    4
         2     6       3    7    3    1
 12      1     6       8    5    7    6
         2     9       1    3    5    5
 13      1     3       7    7    7    4
         2     5       7    6    6    3
 14      1     2       8    4    8    6
         2     5       7    4    7    4
 15      1     6       5    4    4    9
         2     9       3    4    4    5
 16      1     2       8   10    6    5
         2     6       8    6    4    5
 17      1     5       6    2    9    8
         2     9       5    1    6    8
 18      1     0       0    0    0    0
************************************************************************
RESOURCEAVAILABILITIES:
  R 1  R 2  N 1  N 2
   13   12   78   83
************************************************************************
